p cnf 12 50 
-9 -6 12 0
-8 6 3 0
1 5 11 0
-7 3 12 0
-4 7 11 0
1 3 -12 0
-5 8 1 0
-9 -8 7 0
12 7 6 0
10 11 -6 0
7 -4 -12 0
5 -6 1 0
6 4 11 0
-9 8 -2 0
-9 -6 -5 0
7 -9 -6 0
9 -4 12 0
-2 -5 10 0
6 3 2 0
-8 2 6 0
6 -9 12 0
-3 -8 -6 0
6 -4 10 0
-9 -5 7 0
-11 -5 -7 0
6 4 -7 0
2 -3 5 0
10 -4 3 0
11 -12 8 0
1 -3 -10 0
-9 -10 -4 0
4 -9 -8 0
7 1 9 0
-3 -5 -1 0
-12 -1 3 0
-7 -2 9 0
-7 -8 1 0
11 -8 6 0
-9 -8 11 0
7 -10 5 0
-3 -6 1 0
10 12 3 0
12 10 7 0
6 2 10 0
-7 11 4 0
6 8 11 0
11 5 -12 0
-2 -11 -4 0
-8 2 -1 0
-10 -2 -6 0
